50

94 13 303
92 4 417
89 8 348
89 7 388
87 25 298
82 22 356
82 9 332
81 6 328
80 20 386
80 16 471
78 4 302
71 19 278
70 15 210
67 19 210
66 12 441
63 5 466
58 16 371
52 13 162
50 5 461
48 4 374
46 11 449
36 6 238
34 5 274
33 6 329
31 1 164
30 6 148
27 5 238
26 4 130
21 6 240
21 2 452
20 2 280
19 2 399
18 6 159
18 5 150
17 6 338
12 4 225
11 4 445
11 1 188
11 3 305
11 2 208
10 3 210
10 2 419
7 1 467
7 2 400
7 3 384
6 1 370
5 1 163
5 2 75
4 1 226
3 1 242
